Set parameter TokenServer to value "hpc-licenses.hpcc.usc.edu"
Set parameter TimeLimit to value 3600
Gurobi Optimizer version 9.5.1 build v9.5.1rc2 (linux64)
Thread count: 20 physical cores, 20 logical processors, using up to 20 threads
Optimize a model with 6007 rows, 4529 columns and 24534 nonzeros
Model fingerprint: 0x3a97ddf5
Variable types: 4506 continuous, 23 integer (23 binary)
Coefficient statistics:
  Matrix range     [1e+00, 1e+00]
  Objective range  [3e-03, 8e+00]
  Bounds range     [1e+00, 1e+00]
  RHS range        [1e+00, 1e+02]
Found heuristic solution: objective 226.5220707
Presolve removed 1520 rows and 1515 columns
Presolve time: 0.06s
Presolved: 4487 rows, 3014 columns, 21975 nonzeros
Variable types: 2994 continuous, 20 integer (20 binary)

Root relaxation: objective 2.405120e+02, 3314 iterations, 0.16 seconds (0.19 work units)

    Nodes    |    Current Node    |     Objective Bounds      |     Work
 Expl Unexpl |  Obj  Depth IntInf | Incumbent    BestBd   Gap | It/Node Time

     0     0  240.51198    0    2  226.52207  240.51198  6.18%     -    0s
H    0     0                     227.0915146  240.51198  5.91%     -    0s
     0     0  240.45773    0    2  227.09151  240.45773  5.89%     -    0s
H    0     0                     228.3938992  240.45773  5.28%     -    0s
H    0     0                     239.0272384  240.20976  0.49%     -    0s
     0     0  240.20976    0    2  239.02724  240.20976  0.49%     -    0s
H    0     0                     239.3466297  240.20976  0.36%     -    0s
     0     0  240.20976    0    4  239.34663  240.20976  0.36%     -    0s
     0     0  240.20976    0    2  239.34663  240.20976  0.36%     -    0s
     0     0  239.34663    0    5  239.34663  239.34663  0.00%     -    1s

Cutting planes:
  Gomory: 2
  MIR: 1

Explored 1 nodes (6034 simplex iterations) in 1.40 seconds (0.92 work units)
Thread count was 20 (of 20 available processors)

Solution count 5: 239.347 239.027 228.394 ... 226.522

Optimal solution found (tolerance 1.00e-04)
Best objective 2.393466297039e+02, best bound 2.393466297039e+02, gap 0.0000%



#########node  1
V1.7
#########node  2
0.14473684210526316,0.8552631578947368
#########node  3
1.0,0.0


Total Solving Time 1.8407022953033447
obj value 239.34662970391236
Policy Regret train (Sum) 4.147362670960024
Best Treatment Found train (%) 70.19999999999999
treatment classification acc train (%) 25.2
Policy Regret test (Sum) 63.74597884426457
Best Treatment Found test (%) 73.06
treatment classification acc test (%) 25.95
